
Gurobi 7.0.2 (linux64, Python) logging started Wed Aug  9 00:35:59 2017


Gurobi 7.0.2 (linux64, Python) logging started Wed Aug  9 00:37:02 2017


Gurobi 7.0.2 (linux64, Python) logging started Wed Aug  9 00:38:28 2017


Gurobi 7.0.2 (linux64, Python) logging started Wed Aug  9 00:39:18 2017


Gurobi 7.0.2 (linux64, Python) logging started Wed Aug  9 00:40:40 2017


Gurobi 7.0.2 (linux64, Python) logging started Wed Aug  9 00:41:31 2017


Gurobi 7.0.2 (linux64, Python) logging started Wed Aug  9 00:42:59 2017


Gurobi 7.0.2 (linux64, Python) logging started Wed Aug  9 00:43:47 2017


Gurobi 7.0.2 (linux64, Python) logging started Wed Aug  9 00:45:13 2017


Gurobi 7.0.2 (linux64, Python) logging started Wed Aug  9 00:52:59 2017


Gurobi 7.0.2 (linux64, Python) logging started Wed Aug  9 00:53:25 2017


Gurobi 7.0.2 (linux64, Python) logging started Wed Aug  9 00:53:27 2017


Gurobi 7.0.2 (linux64, Python) logging started Wed Aug  9 01:23:48 2017


Gurobi 7.0.2 (linux64, Python) logging started Wed Aug  9 01:23:49 2017


Gurobi 7.0.2 (linux64, Python) logging started Wed Aug  9 01:23:50 2017


Gurobi 7.0.2 (linux64, Python) logging started Wed Aug  9 01:24:28 2017


Gurobi 7.0.2 (linux64, Python) logging started Wed Aug  9 01:24:29 2017


Gurobi 7.0.2 (linux64, Python) logging started Wed Aug  9 01:24:30 2017


Gurobi 7.0.2 (linux64, Python) logging started Wed Aug  9 01:24:32 2017


Gurobi 7.0.2 (linux64, Python) logging started Wed Aug  9 01:24:33 2017


Gurobi 7.0.2 (linux64, Python) logging started Wed Aug  9 01:24:34 2017


Gurobi 7.0.2 (linux64, Python) logging started Wed Aug  9 01:40:16 2017


Gurobi 7.0.2 (linux64, Python) logging started Wed Aug  9 01:40:17 2017


Gurobi 7.0.2 (linux64, Python) logging started Wed Aug  9 01:40:19 2017


Gurobi 7.0.2 (linux64, Python) logging started Wed Aug  9 01:40:20 2017


Gurobi 7.0.2 (linux64, Python) logging started Wed Aug  9 01:40:21 2017


Gurobi 7.0.2 (linux64, Python) logging started Wed Aug  9 01:43:42 2017


Gurobi 7.0.2 (linux64, Python) logging started Wed Aug  9 01:56:35 2017


Gurobi 7.0.2 (linux64, Python) logging started Wed Aug  9 01:56:39 2017


Gurobi 7.0.2 (linux64, Python) logging started Wed Aug  9 01:56:41 2017


Gurobi 7.0.2 (mac64, Python) logging started Wed Aug 30 10:55:09 2017
